
214
400
   280      1
   279      1
   278      2
   276      4
   275      2
   274      1
   273      1
   272      1
   271      4
   270      3
   269      2
   268      3
   267      2
   266      3
   265      8
   264      3
   263      4
   262      5
   261      1
   260      6
   259      2
   258      2
   257      3
   256      1
   255      4
   254      3
   253      1
   252      1
   251      1
   250      1
   249      2
   248      3
   247      2
   246      1
   245      4
   244      2
   243      6
   242      3
   240      3
   239      4
   237      1
   236      3
   235      3
   234      1
   233      4
   231      2
   229      2
   228      4
   227      3
   226      3
   225      2
   224      3
   223      2
   222      3
   221      3
   220      2
   219      2
   218      1
   217      1
   216      5
   215      4
   214      3
   213      1
   212      2
   211      2
   210      2
   207      3
   206      2
   205      2
   204      1
   203      1
   202      2
   201      1
   200      1
   199      3
   198      3
   197      4
   196      2
   195      1
   192      3
   191      1
   190      4
   189      3
   188      1
   187      2
   186      1
   185      1
   184      2
   183      1
   182      3
   180      4
   179      1
   177      3
   175      1
   174      1
   173      2
   172      4
   171      1
   170      2
   169      1
   168      2
   167      2
   166      1
   165      1
   164      2
   163      5
   161      2
   160      1
   159      1
   158      4
   157      1
   156      4
   155      4
   154      1
   153      4
   152      2
   151      1
   150      3
   149      1
   148      2
   147      2
   146      3
   144      6
   143      1
   142      2
   140      2
   139      3
   138      3
   137      1
   136      2
   135      2
   134      2
   133      1
   130      8
   129      1
   128      3
   126      3
   125      3
   123      2
   122      1
   121      3
   120      1
   119      1
   117      5
   116      3
   115      2
   114      1
   113      1
   112      4
   111      1
   110      2
   109      2
   107      2
   106      5
   105      2
   104      2
   102      5
   101      2
   100      2
    99      2
    98      4
    97      3
    96      1
    95      3
    94      2
    93      3
    92      2
    91      3
    90      4
    89      1
    88      1
    87      1
    86      1
    85      3
    84      4
    83      1
    82      1
    81      4
    80      1
    79      2
    78      2
    77      1
    76      1
    75      2
    73      1
    72      2
    71      6
    70      3
    69      1
    68      3
    67      4
    66      1
    65      3
    64      3
    62      1
    61      3
    60      3
    59      2
    58      1
    57      2
    56      2
    55      1
    53      2
    52      5
    51      3
    49      1
    48      2
    47      4
    46      2
    45      2
    44      2
    42      1
    41      1
    40      1




The initial LP solution: time=0.18


File: BPP_500_400_0.1_0.7_1.txt  Instance No. 1
Wed Feb 25 13:41:58 2015

LP solution: lpval=205.1964735516373 lpbnd=206

1: 0:1 141:1 obj 1\\
1: 1:1 140:1 obj 1\\
1: 2:1 139:1 obj 1\\
0.2273407733088413: 2:1 140:1 obj 1\\
1.118017350344188: 3:1 138:1 obj 1\\
1: 3:1 174:1 213:1 obj 1\\
2: 4:1 137:1 obj 1\\
1: 5:1 136:1 obj 1\\
0.4208987305513375: 6:1 136:1 obj 1\\
1: 7:1 135:1 obj 1\\
1: 8:1 134:1 obj 1\\
2: 8:1 135:1 obj 1\\
3: 9:1 133:1 obj 1\\
2: 10:1 133:1 obj 1\\
1: 11:1 167:1 212:1 obj 1\\
1: 12:1 132:1 obj 1\\
1: 12:1 169:1 210:1 obj 1\\
2: 13:1 131:1 obj 1\\
2: 14:1 130:1 obj 1\\
1.171201656830562: 14:1 168:1 209:1 obj 1\\
0.2038949613072772: 14:1 175:1 203:1 obj 1\\
2.692876515199737: 14:1 186:1 193:1 obj 1\\
2: 15:1 129:1 obj 1\\
1: 16:1 128:1 obj 1\\
0.1429652902181521: 16:1 172:1 204:1 obj 1\\
2.324850639725741: 16:1 173:1 203:1 obj 1\\
3: 17:1 127:1 obj 1\\
0.4491242986659874: 17:1 171:1 204:1 obj 1\\
0.08478184761159979: 17:1 173:1 202:1 obj 1\\
1: 18:1 126:1 obj 1\\
2: 19:1 125:1 obj 1\\
0.9568241959097563: 19:1 187:2 obj 1\\
1.864078172030299: 20:1 163:1 208:1 obj 1\\
2: 21:1 124:1 obj 1\\
1: 22:1 123:1 obj 1\\
1: 23:1 122:1 obj 1\\
2.433779633351217: 24:1 160:1 207:1 obj 1\\
3: 25:1 121:1 obj 1\\
1: 26:1 120:1 obj 1\\
1: 27:1 119:1 obj 1\\
1: 28:1 118:1 obj 1\\
1: 29:1 117:1 obj 1\\
1: 30:1 116:1 obj 1\\
1: 30:1 117:1 obj 1\\
2: 31:1 115:1 obj 1\\
2: 32:1 114:1 obj 1\\
1: 33:1 113:1 obj 1\\
4: 34:1 112:1 obj 1\\
2: 35:1 111:1 obj 1\\
1: 36:1 110:1 obj 1\\
2: 36:1 111:1 obj 1\\
0.6043725959133937: 36:1 158:1 199:1 obj 1\\
3: 37:1 109:1 obj 1\\
1: 38:1 107:1 obj 1\\
1.44583246187562: 38:1 165:1 190:1 obj 1\\
2: 39:1 106:1 obj 1\\
0.1122924415062432: 39:1 174:1 181:1 obj 1\\
1: 40:1 105:1 obj 1\\
2: 41:1 104:1 obj 1\\
1: 42:1 103:1 obj 1\\
1: 43:1 102:1 obj 1\\
2: 44:1 101:1 obj 1\\
0.2818800070929082: 44:1 144:1 204:1 obj 1\\
1: 45:1 99:1 obj 1\\
0.9663342623830358: 45:1 100:1 obj 1\\
1: 46:1 97:1 obj 1\\
1: 46:1 98:1 obj 1\\
4: 47:1 96:1 obj 1\\
2: 48:1 95:1 obj 1\\
1: 48:1 143:1 200:1 obj 1\\
1: 49:1 94:1 obj 1\\
0.4491242986659874: 49:1 137:1 205:1 obj 1\\
1: 50:1 93:1 obj 1\\
1: 50:1 143:1 198:1 obj 1\\
0.5671416490101757: 51:1 143:1 197:1 obj 1\\
1.157789922614554: 51:1 144:1 196:1 obj 1\\
2: 52:1 92:1 obj 1\\
0.8644788531313363: 53:1 92:1 obj 1\\
1: 54:1 91:1 obj 1\\
0.4458324618756198: 54:1 143:1 194:1 obj 1\\
2: 55:1 90:1 obj 1\\
1: 57:1 89:1 obj 1\\
1: 58:1 88:1 obj 1\\
2: 59:1 87:1 obj 1\\
0.7764409742745682: 59:1 165:1 167:1 obj 1\\
1: 60:1 86:1 obj 1\\
0.5508757013340126: 60:1 157:1 174:1 obj 1\\
1: 61:1 85:1 obj 1\\
1: 62:1 84:1 obj 1\\
1: 63:1 83:1 obj 1\\
0.4261303185443168: 63:1 84:1 obj 1\\
2: 64:1 82:1 obj 1\\
2: 65:1 81:1 obj 1\\
3: 66:1 79:1 obj 1\\
1.560330070292537: 67:1 144:1 180:1 obj 1\\
1: 68:1 78:1 obj 1\\
1: 69:1 77:1 obj 1\\
1: 70:1 76:1 obj 1\\
2: 71:1 75:1 obj 1\\
1: 72:1 74:1 obj 1\\
1: 89:1 146:1 155:1 obj 1\\
0.4194187680164387: 100:1 119:1 174:1 obj 1\\
1.424611708754285: 122:2 148:1 obj 1\\
0.05107177931962603: 15:1 167:1 209:1 obj 1\\
1.566220366648783: 24:1 122:1 obj 1\\
1.220495662413953: 42:1 174:1 177:1 obj 1\\
0.5321840700561071: 16:1 187:1 190:1 obj 1\\
2: 19:1 126:1 obj 1\\
1.135521146868664: 53:1 161:1 177:1 obj 1\\
1: 54:1 153:1 184:1 obj 1\\
0.5738696814556832: 63:1 140:1 190:1 obj 1\\
1: 68:1 145:1 178:1 obj 1\\
1: 73:1 74:1 obj 1\\
0.1341997517482205: 77:1 151:1 163:1 obj 1\\
0.5343363811619635: 39:1 168:1 186:1 obj 1\\
1: 41:1 105:1 obj 1\\
2: 56:1 156:1 179:1 obj 1\\
0.7754452391128411: 59:1 166:2 obj 1\\
0.9409771162782228: 81:1 153:1 155:1 obj 1\\
0.4154437841573535: 82:1 143:1 164:1 obj 1\\
1.432858350989824: 3:1 192:1 197:1 obj 1\\
1: 8:1 189:1 195:1 obj 1\\
1.449124298665987: 76:1 156:1 157:1 obj 1\\
0.5738696814556832: 84:1 152:1 153:1 obj 1\\
0.25: 98:2 196:1 obj 1\\
0.05900867517209418: 120:2 153:1 obj 1\\
0.04317580409024369: 19:1 174:1 200:1 obj 1\\
0.1359218279697008: 20:1 170:1 202:1 obj 1\\
1.203894961307277: 22:1 183:1 189:1 obj 1\\
1.353371177331793: 39:1 150:1 204:1 obj 1\\
1.718119992907092: 44:1 153:1 195:1 obj 1\\
0.8570347097818479: 60:1 159:1 172:1 obj 1\\
0.4234875283034306: 61:1 154:1 177:1 obj 1\\
1: 75:1 136:1 182:1 obj 1\\
0.5845562158426465: 114:2 164:1 obj 1\\
0.05902288372177722: 119:2 155:1 obj 1\\
1: 14:1 188:1 191:1 obj 1\\
0.805259891423947: 31:1 158:1 203:1 obj 1\\
0.03366573761696423: 45:1 166:1 181:1 obj 1\\
1.198789545235476: 61:1 140:1 192:1 obj 1\\
0.5143102828979076: 76:1 142:1 174:1 obj 1\\
1: 80:1 148:1 161:1 obj 1\\
0.1459581791232074: 89:1 105:1 201:1 obj 1\\
0.01205282852440259: 92:1 137:1 160:1 obj 1\\
1: 108:1 133:1 149:1 obj 1\\
0.4625354645400068: 114:1 119:1 159:1 obj 1\\
0.5791012694486625: 6:1 186:1 200:1 obj 1\\
0.1359218279697008: 14:1 167:1 210:1 obj 1\\
0.194740108576053: 31:1 159:1 202:1 obj 1\\
1.311632710127399: 36:1 151:1 206:1 obj 1\\
0.7795043375860471: 42:1 147:1 203:1 obj 1\\
0.1359218279697008: 51:1 133:1 208:1 obj 1\\
1.00172207622148: 60:1 163:1 168:1 obj 1\\
1.036565418436105: 76:1 148:1 167:1 obj 1\\
1.395627404086606: 90:1 105:1 199:1 obj 1\\
0.3071234848002629: 100:2 193:1 obj 1\\
0.4154437841573535: 109:1 117:1 166:1 obj 1\\
0.7726592266911587: 2:1 186:1 204:1 obj 1\\
0.6883672898726008: 17:1 168:1 206:1 obj 1\\
0.6466288226682066: 36:1 150:1 207:1 obj 1\\
1.550875701334013: 49:1 156:1 185:1 obj 1\\
0.2204956624139529: 67:1 147:1 177:1 obj 1\\
1: 74:1 152:1 164:1 obj 1\\
0.4261303185443168: 77:1 152:1 161:1 obj 1\\
0.139431339741201: 81:1 136:1 174:1 obj 1\\
0.8819826496558116: 120:1 133:1 138:1 obj 1\\
0.4491242986659874: 3:1 185:1 203:1 obj 1\\
0.8540418208767926: 11:1 181:1 201:1 obj 1\\
0.7961050386927228: 14:1 183:1 196:1 obj 1\\
0.5508757013340126: 15:1 171:1 205:1 obj 1\\
0.3980525193463613: 15:1 189:2 obj 1\\
1: 19:1 160:1 211:1 obj 1\\
1.139146600405569: 51:1 154:1 186:1 obj 1\\
1: 53:1 162:1 176:1 obj 1\\
0.5541675381243802: 54:1 151:1 187:1 obj 1\\
1.44811378661259: 59:1 143:1 190:1 obj 1\\
0.5903675126626593: 60:1 158:1 173:1 obj 1\\
0.4396699297074629: 77:1 136:1 180:1 obj 1\\
0.9195915439805762: 81:1 105:1 207:1 obj 1\\
0.5845562158426465: 82:1 109:1 202:1 obj 1\\
0.3683521037747002: 89:1 114:1 192:1 obj 1\\
0.6043725959133937: 90:1 133:1 168:1 obj 1\\
0.5: 98:1 145:2 obj 1\\
0.5388228728096101: 105:1 137:1 148:1 obj 1\\
0.5845562158426465: 117:1 122:1 153:1 obj 1\\
0.8640781720302992: 11:1 170:1 210:1 obj 1\\
0.2818800070929082: 11:1 186:1 195:1 obj 1\\
1: 13:1 177:1 202:1 obj 1\\
0.7777265638498121: 17:1 165:1 209:1 obj 1\\
0.7961050386927228: 22:1 175:1 196:1 obj 1\\
0.4373658712910005: 36:1 154:1 203:1 obj 1\\
0.5541675381243802: 38:1 160:1 194:1 obj 1\\
0.3777229264610938: 61:1 133:1 200:1 obj 1\\
0.2191742672935098: 67:1 161:2 obj 1\\
0.4856897171020924: 89:1 142:1 159:1 obj 1\\
0.123468318344261: 92:1 143:1 153:1 obj 1\\






File: BPP_500_400_0.1_0.7_1.txt  Instance No. 1
Wed Feb 25 13:41:58 2015

LP0 Time: 0.18 IPTime: 0.18 The best integer solution (206):

1: 0:1 141:1 obj 1\\
1: 1:1 140:1 obj 1\\
1: 2:1 139:1 obj 1\\
1: 3:1 138:1 obj 1\\
1: 3:1 174:1 213:1 obj 1\\
2: 4:1 137:1 obj 1\\
1: 5:1 136:1 obj 1\\
1: 7:1 135:1 obj 1\\
1: 8:1 134:1 obj 1\\
2: 8:1 135:1 obj 1\\
3: 9:1 133:1 obj 1\\
2: 10:1 133:1 obj 1\\
1: 11:1 167:1 212:1 obj 1\\
1: 12:1 132:1 obj 1\\
1: 12:1 169:1 210:1 obj 1\\
2: 13:1 131:1 obj 1\\
2: 14:1 130:1 obj 1\\
1: 14:1 168:1 209:1 obj 1\\
3: 14:1 186:1 193:1 obj 1\\
2: 15:1 129:1 obj 1\\
1: 16:1 128:1 obj 1\\
3: 16:1 173:1 203:1 obj 1\\
3: 17:1 127:1 obj 1\\
1: 18:1 126:1 obj 1\\
2: 19:1 125:1 obj 1\\
1: 19:1 187:2 obj 1\\
2: 20:1 163:1 208:1 obj 1\\
2: 21:1 124:1 obj 1\\
1: 22:1 123:1 obj 1\\
1: 23:1 122:1 obj 1\\
2: 24:1 160:1 207:1 obj 1\\
3: 25:1 121:1 obj 1\\
1: 26:1 120:1 obj 1\\
1: 27:1 119:1 obj 1\\
1: 28:1 118:1 obj 1\\
1: 29:1 117:1 obj 1\\
1: 30:1 116:1 obj 1\\
1: 30:1 117:1 obj 1\\
2: 31:1 115:1 obj 1\\
2: 32:1 114:1 obj 1\\
1: 33:1 113:1 obj 1\\
4: 34:1 112:1 obj 1\\
2: 35:1 111:1 obj 1\\
1: 36:1 110:1 obj 1\\
2: 36:1 111:1 obj 1\\
1: 36:1 158:1 199:1 obj 1\\
3: 37:1 109:1 obj 1\\
1: 38:1 107:1 obj 1\\
1: 38:1 165:1 190:1 obj 1\\
2: 39:1 106:1 obj 1\\
1: 40:1 105:1 obj 1\\
2: 41:1 104:1 obj 1\\
1: 42:1 103:1 obj 1\\
1: 43:1 102:1 obj 1\\
2: 44:1 101:1 obj 1\\
1: 45:1 99:1 obj 1\\
1: 45:1 100:1 obj 1\\
1: 46:1 97:1 obj 1\\
1: 46:1 98:1 obj 1\\
4: 47:1 96:1 obj 1\\
2: 48:1 95:1 obj 1\\
1: 48:1 143:1 200:1 obj 1\\
1: 49:1 94:1 obj 1\\
1: 50:1 93:1 obj 1\\
1: 50:1 143:1 198:1 obj 1\\
1: 51:1 143:1 197:1 obj 1\\
1: 51:1 144:1 196:1 obj 1\\
2: 52:1 92:1 obj 1\\
1: 53:1 92:1 obj 1\\
1: 54:1 91:1 obj 1\\
2: 55:1 90:1 obj 1\\
1: 57:1 89:1 obj 1\\
1: 58:1 88:1 obj 1\\
2: 59:1 87:1 obj 1\\
1: 59:1 165:1 167:1 obj 1\\
1: 60:1 86:1 obj 1\\
1: 60:1 157:1 174:1 obj 1\\
1: 61:1 85:1 obj 1\\
1: 62:1 84:1 obj 1\\
1: 63:1 83:1 obj 1\\
2: 64:1 82:1 obj 1\\
2: 65:1 81:1 obj 1\\
3: 66:1 79:1 obj 1\\
2: 67:1 144:1 180:1 obj 1\\
1: 68:1 78:1 obj 1\\
1: 69:1 77:1 obj 1\\
1: 70:1 76:1 obj 1\\
2: 71:1 75:1 obj 1\\
1: 72:1 74:1 obj 1\\
1: 89:1 146:1 155:1 obj 1\\
1: 122:2 148:1 obj 1\\
2: 24:1 122:1 obj 1\\
1: 42:1 174:1 177:1 obj 1\\
2: 19:1 126:1 obj 1\\
1: 53:1 161:1 177:1 obj 1\\
1: 54:1 153:1 184:1 obj 1\\
1: 63:1 140:1 190:1 obj 1\\
1: 68:1 145:1 178:1 obj 1\\
1: 73:1 74:1 obj 1\\
1: 41:1 105:1 obj 1\\
2: 56:1 156:1 179:1 obj 1\\
1: 59:1 166:2 obj 1\\
1: 81:1 153:1 155:1 obj 1\\
1: 3:1 192:1 197:1 obj 1\\
1: 8:1 189:1 195:1 obj 1\\
1: 76:1 156:1 157:1 obj 1\\
1: 22:1 183:1 189:1 obj 1\\
1: 39:1 150:1 204:1 obj 1\\
2: 44:1 153:1 195:1 obj 1\\
1: 60:1 159:1 172:1 obj 1\\
1: 61:1 154:1 177:1 obj 1\\
1: 75:1 136:1 182:1 obj 1\\
1: 114:2 164:1 obj 1\\
1: 14:1 188:1 191:1 obj 1\\
1: 31:1 158:1 203:1 obj 1\\
1: 61:1 140:1 192:1 obj 1\\
1: 76:1 142:1 174:1 obj 1\\
1: 80:1 148:1 161:1 obj 1\\
1: 108:1 133:1 149:1 obj 1\\
1: 6:1 186:1 200:1 obj 1\\
1: 36:1 151:1 206:1 obj 1\\
1: 42:1 147:1 203:1 obj 1\\
1: 60:1 163:1 168:1 obj 1\\
1: 76:1 148:1 167:1 obj 1\\
1: 90:1 105:1 199:1 obj 1\\
1: 2:1 186:1 204:1 obj 1\\
1: 17:1 168:1 206:1 obj 1\\
1: 36:1 150:1 207:1 obj 1\\
2: 49:1 156:1 185:1 obj 1\\
1: 74:1 152:1 164:1 obj 1\\
1: 77:1 152:1 161:1 obj 1\\
1: 120:1 133:1 138:1 obj 1\\
1: 11:1 181:1 201:1 obj 1\\
1: 14:1 183:1 196:1 obj 1\\
1: 15:1 171:1 205:1 obj 1\\
1: 19:1 160:1 211:1 obj 1\\
1: 51:1 154:1 186:1 obj 1\\
1: 53:1 162:1 176:1 obj 1\\
1: 54:1 151:1 187:1 obj 1\\
1: 59:1 143:1 190:1 obj 1\\
1: 81:1 105:1 207:1 obj 1\\
1: 82:1 109:1 202:1 obj 1\\
1: 90:1 133:1 168:1 obj 1\\
1: 105:1 137:1 148:1 obj 1\\
1: 117:1 122:1 153:1 obj 1\\
1: 11:1 170:1 210:1 obj 1\\
1: 13:1 177:1 202:1 obj 1\\
1: 17:1 165:1 209:1 obj 1\\
1: 22:1 175:1 196:1 obj 1\\
1: 38:1 160:1 194:1 obj 1\\
1: 84:1 119:1 192:1 obj 1\\
1: 100:1 143:1 145:1 obj 1\\
1: 89:1 159:1 189:1 204:1 obj 1\\
1: 39:1 136:1 obj 1\\
1: 3:1 190:1 obj 1\\
1: 98:1 obj 1\\



The last LP solution 


File: BPP_500_400_0.1_0.7_1.txt  Instance No. 1
Wed Feb 25 13:41:58 2015

LP solution: lpval=205.1964735516373 lpbnd=206

1: 0:1 141:1 obj 1\\
1: 1:1 140:1 obj 1\\
1: 2:1 139:1 obj 1\\
0.2273407733088413: 2:1 140:1 obj 1\\
1.118017350344188: 3:1 138:1 obj 1\\
1: 3:1 174:1 213:1 obj 1\\
2: 4:1 137:1 obj 1\\
1: 5:1 136:1 obj 1\\
0.4208987305513375: 6:1 136:1 obj 1\\
1: 7:1 135:1 obj 1\\
1: 8:1 134:1 obj 1\\
2: 8:1 135:1 obj 1\\
3: 9:1 133:1 obj 1\\
2: 10:1 133:1 obj 1\\
1: 11:1 167:1 212:1 obj 1\\
1: 12:1 132:1 obj 1\\
1: 12:1 169:1 210:1 obj 1\\
2: 13:1 131:1 obj 1\\
2: 14:1 130:1 obj 1\\
1.171201656830562: 14:1 168:1 209:1 obj 1\\
0.2038949613072772: 14:1 175:1 203:1 obj 1\\
2.692876515199737: 14:1 186:1 193:1 obj 1\\
2: 15:1 129:1 obj 1\\
1: 16:1 128:1 obj 1\\
0.1429652902181521: 16:1 172:1 204:1 obj 1\\
2.324850639725741: 16:1 173:1 203:1 obj 1\\
3: 17:1 127:1 obj 1\\
0.4491242986659874: 17:1 171:1 204:1 obj 1\\
0.08478184761159979: 17:1 173:1 202:1 obj 1\\
1: 18:1 126:1 obj 1\\
2: 19:1 125:1 obj 1\\
0.9568241959097563: 19:1 187:2 obj 1\\
1.864078172030299: 20:1 163:1 208:1 obj 1\\
2: 21:1 124:1 obj 1\\
1: 22:1 123:1 obj 1\\
1: 23:1 122:1 obj 1\\
2.433779633351217: 24:1 160:1 207:1 obj 1\\
3: 25:1 121:1 obj 1\\
1: 26:1 120:1 obj 1\\
1: 27:1 119:1 obj 1\\
1: 28:1 118:1 obj 1\\
1: 29:1 117:1 obj 1\\
1: 30:1 116:1 obj 1\\
1: 30:1 117:1 obj 1\\
2: 31:1 115:1 obj 1\\
2: 32:1 114:1 obj 1\\
1: 33:1 113:1 obj 1\\
4: 34:1 112:1 obj 1\\
2: 35:1 111:1 obj 1\\
1: 36:1 110:1 obj 1\\
2: 36:1 111:1 obj 1\\
0.6043725959133937: 36:1 158:1 199:1 obj 1\\
3: 37:1 109:1 obj 1\\
1: 38:1 107:1 obj 1\\
1.44583246187562: 38:1 165:1 190:1 obj 1\\
2: 39:1 106:1 obj 1\\
0.1122924415062432: 39:1 174:1 181:1 obj 1\\
1: 40:1 105:1 obj 1\\
2: 41:1 104:1 obj 1\\
1: 42:1 103:1 obj 1\\
1: 43:1 102:1 obj 1\\
2: 44:1 101:1 obj 1\\
0.2818800070929082: 44:1 144:1 204:1 obj 1\\
1: 45:1 99:1 obj 1\\
0.9663342623830358: 45:1 100:1 obj 1\\
1: 46:1 97:1 obj 1\\
1: 46:1 98:1 obj 1\\
4: 47:1 96:1 obj 1\\
2: 48:1 95:1 obj 1\\
1: 48:1 143:1 200:1 obj 1\\
1: 49:1 94:1 obj 1\\
0.4491242986659874: 49:1 137:1 205:1 obj 1\\
1: 50:1 93:1 obj 1\\
1: 50:1 143:1 198:1 obj 1\\
0.5671416490101757: 51:1 143:1 197:1 obj 1\\
1.157789922614554: 51:1 144:1 196:1 obj 1\\
2: 52:1 92:1 obj 1\\
0.8644788531313363: 53:1 92:1 obj 1\\
1: 54:1 91:1 obj 1\\
0.4458324618756198: 54:1 143:1 194:1 obj 1\\
2: 55:1 90:1 obj 1\\
1: 57:1 89:1 obj 1\\
1: 58:1 88:1 obj 1\\
2: 59:1 87:1 obj 1\\
0.7764409742745682: 59:1 165:1 167:1 obj 1\\
1: 60:1 86:1 obj 1\\
0.5508757013340126: 60:1 157:1 174:1 obj 1\\
1: 61:1 85:1 obj 1\\
1: 62:1 84:1 obj 1\\
1: 63:1 83:1 obj 1\\
0.4261303185443168: 63:1 84:1 obj 1\\
2: 64:1 82:1 obj 1\\
2: 65:1 81:1 obj 1\\
3: 66:1 79:1 obj 1\\
1.560330070292537: 67:1 144:1 180:1 obj 1\\
1: 68:1 78:1 obj 1\\
1: 69:1 77:1 obj 1\\
1: 70:1 76:1 obj 1\\
2: 71:1 75:1 obj 1\\
1: 72:1 74:1 obj 1\\
1: 89:1 146:1 155:1 obj 1\\
0.4194187680164387: 100:1 119:1 174:1 obj 1\\
1.424611708754285: 122:2 148:1 obj 1\\
0.05107177931962603: 15:1 167:1 209:1 obj 1\\
1.566220366648783: 24:1 122:1 obj 1\\
1.220495662413953: 42:1 174:1 177:1 obj 1\\
0.5321840700561071: 16:1 187:1 190:1 obj 1\\
2: 19:1 126:1 obj 1\\
1.135521146868664: 53:1 161:1 177:1 obj 1\\
1: 54:1 153:1 184:1 obj 1\\
0.5738696814556832: 63:1 140:1 190:1 obj 1\\
1: 68:1 145:1 178:1 obj 1\\
1: 73:1 74:1 obj 1\\
0.1341997517482205: 77:1 151:1 163:1 obj 1\\
0.5343363811619635: 39:1 168:1 186:1 obj 1\\
1: 41:1 105:1 obj 1\\
2: 56:1 156:1 179:1 obj 1\\
0.7754452391128411: 59:1 166:2 obj 1\\
0.9409771162782228: 81:1 153:1 155:1 obj 1\\
0.4154437841573535: 82:1 143:1 164:1 obj 1\\
1.432858350989824: 3:1 192:1 197:1 obj 1\\
1: 8:1 189:1 195:1 obj 1\\
1.449124298665987: 76:1 156:1 157:1 obj 1\\
0.5738696814556832: 84:1 152:1 153:1 obj 1\\
0.25: 98:2 196:1 obj 1\\
0.05900867517209418: 120:2 153:1 obj 1\\
0.04317580409024369: 19:1 174:1 200:1 obj 1\\
0.1359218279697008: 20:1 170:1 202:1 obj 1\\
1.203894961307277: 22:1 183:1 189:1 obj 1\\
1.353371177331793: 39:1 150:1 204:1 obj 1\\
1.718119992907092: 44:1 153:1 195:1 obj 1\\
0.8570347097818479: 60:1 159:1 172:1 obj 1\\
0.4234875283034306: 61:1 154:1 177:1 obj 1\\
1: 75:1 136:1 182:1 obj 1\\
0.5845562158426465: 114:2 164:1 obj 1\\
0.05902288372177722: 119:2 155:1 obj 1\\
1: 14:1 188:1 191:1 obj 1\\
0.805259891423947: 31:1 158:1 203:1 obj 1\\
0.03366573761696423: 45:1 166:1 181:1 obj 1\\
1.198789545235476: 61:1 140:1 192:1 obj 1\\
0.5143102828979076: 76:1 142:1 174:1 obj 1\\
1: 80:1 148:1 161:1 obj 1\\
0.1459581791232074: 89:1 105:1 201:1 obj 1\\
0.01205282852440259: 92:1 137:1 160:1 obj 1\\
1: 108:1 133:1 149:1 obj 1\\
0.4625354645400068: 114:1 119:1 159:1 obj 1\\
0.5791012694486625: 6:1 186:1 200:1 obj 1\\
0.1359218279697008: 14:1 167:1 210:1 obj 1\\
0.194740108576053: 31:1 159:1 202:1 obj 1\\
1.311632710127399: 36:1 151:1 206:1 obj 1\\
0.7795043375860471: 42:1 147:1 203:1 obj 1\\
0.1359218279697008: 51:1 133:1 208:1 obj 1\\
1.00172207622148: 60:1 163:1 168:1 obj 1\\
1.036565418436105: 76:1 148:1 167:1 obj 1\\
1.395627404086606: 90:1 105:1 199:1 obj 1\\
0.3071234848002629: 100:2 193:1 obj 1\\
0.4154437841573535: 109:1 117:1 166:1 obj 1\\
0.7726592266911587: 2:1 186:1 204:1 obj 1\\
0.6883672898726008: 17:1 168:1 206:1 obj 1\\
0.6466288226682066: 36:1 150:1 207:1 obj 1\\
1.550875701334013: 49:1 156:1 185:1 obj 1\\
0.2204956624139529: 67:1 147:1 177:1 obj 1\\
1: 74:1 152:1 164:1 obj 1\\
0.4261303185443168: 77:1 152:1 161:1 obj 1\\
0.139431339741201: 81:1 136:1 174:1 obj 1\\
0.8819826496558116: 120:1 133:1 138:1 obj 1\\
0.4491242986659874: 3:1 185:1 203:1 obj 1\\
0.8540418208767926: 11:1 181:1 201:1 obj 1\\
0.7961050386927228: 14:1 183:1 196:1 obj 1\\
0.5508757013340126: 15:1 171:1 205:1 obj 1\\
0.3980525193463613: 15:1 189:2 obj 1\\
1: 19:1 160:1 211:1 obj 1\\
1.139146600405569: 51:1 154:1 186:1 obj 1\\
1: 53:1 162:1 176:1 obj 1\\
0.5541675381243802: 54:1 151:1 187:1 obj 1\\
1.44811378661259: 59:1 143:1 190:1 obj 1\\
0.5903675126626593: 60:1 158:1 173:1 obj 1\\
0.4396699297074629: 77:1 136:1 180:1 obj 1\\
0.9195915439805762: 81:1 105:1 207:1 obj 1\\
0.5845562158426465: 82:1 109:1 202:1 obj 1\\
0.3683521037747002: 89:1 114:1 192:1 obj 1\\
0.6043725959133937: 90:1 133:1 168:1 obj 1\\
0.5: 98:1 145:2 obj 1\\
0.5388228728096101: 105:1 137:1 148:1 obj 1\\
0.5845562158426465: 117:1 122:1 153:1 obj 1\\
0.8640781720302992: 11:1 170:1 210:1 obj 1\\
0.2818800070929082: 11:1 186:1 195:1 obj 1\\
1: 13:1 177:1 202:1 obj 1\\
0.7777265638498121: 17:1 165:1 209:1 obj 1\\
0.7961050386927228: 22:1 175:1 196:1 obj 1\\
0.4373658712910005: 36:1 154:1 203:1 obj 1\\
0.5541675381243802: 38:1 160:1 194:1 obj 1\\
0.3777229264610938: 61:1 133:1 200:1 obj 1\\
0.2191742672935098: 67:1 161:2 obj 1\\
0.4856897171020924: 89:1 142:1 159:1 obj 1\\
0.123468318344261: 92:1 143:1 153:1 obj 1\\



